20
84.0
0 19 46.52 3.43
1 18 55.92 4.13
2 17 43.88 5.34
3 16 63.14 4.66
4 15 50.86 5.05
5 14 53.46 5.26
6 13 51.9 4.65
7 12 52.52 4.42
8 11 44.65 6.58
9 10 36.86 5.71
10 9 45.59 5.24
11 8 47.9 2.98
12 7 63.27 4.2
13 6 22.93 5.79
14 5 41.63 3.88
15 4 29.24 4.93
16 3 42.52 4.83
17 2 44.92 3.0
18 1 46.15 3.85
